Cu
 1.00000000000000000
     2.53303575701999869757      -.09088735249999994256    .0000000000000000
     -1.34522863465770792062      2.08169547822824145370    .0000000000000000
      .000000000000000     .00000000000000    63.27593034915869356134 
  24
Selective dynamics
Direct
   .3333333333333286   .6666666666666643   .1185284822865782   F   F   F
   .6666666666666643   .3333333333333357   .1516999186094878   F   F   F
   .0000000000000000   .0000000000000000   .1848589208454497   T   T   T
   .3333333333333286   .6666666666666643   .2180206715133299   T   T   T
   .6666666666666643   .3333333333333357   .2512257534097896   T   T   T
   .0000000000000000   .0000000000000000   .2843786564112883   T   T   T
   .3333333333333286   .6666666666666643   .3175644456970751   T   T   T
   .6666666666666643   .3333333333333286   .3507257887572191   T   T   T
   .0000000000000000   .0000000000000000   .3838973926822139   T   T   T
   .3333333333333286   .6666666666666643   .4170756687740492   T   T   T
   .6666666666666643   .3333333333333357   .4502328669501330   T   T   T
   .0000000000000000   .0000000000000000   .4834245346861108   T   T   T
   .3333333333333286   .6666666666666643   .5165754653138892   T   T   T
   .6666666666666643   .3333333333333357   .5497671330498669   T   T   T
   .0000000000000000   .0000000000000000   .5829243312259508   T   T   T
   .3333333333333286   .6666666666666643   .6161026073177861   T   T   T
   .6666666666666643   .3333333333333357   .6492742112427810   T   T   T
   .0000000000000000   .0000000000000000   .6824355543029248   T   T   T
   .3333333333333286   .6666666666666643   .7156213435887117   T   T   T
   .6666666666666643   .3333333333333357   .7487742465902104   T   T   T
   .0000000000000000   .0000000000000000   .7819793284866701   T   T   T
   .3333333333333286   .6666666666666643   .8151410791545503   T   T   T
   .6666666666666643   .3333333333333357   .8483000813905122   F   F   F
   .0000000000000000   .0000000000000000   .8814715177134218   F   F   F
